<?xml version = "1.0" standalone="yes"?>
<!-- This file has been generated by DOcplex version 2.23.222  -->
<CPLEXSolution version="1.0">
 <header
   problemName="CVRP"
   objectiveValue="14529.5"
  />
 <variables>
  <variable name="x_0_1" index="0" value="1.00000"/>
  <variable name="x_0_2" index="1" value="1.00000"/>
  <variable name="x_0_3" index="2" value="1.00000"/>
  <variable name="x_0_7" index="6" value="1.00000"/>
  <variable name="x_0_10" index="9" value="1.00000"/>
  <variable name="x_0_12" index="11" value="1.00000"/>
  <variable name="x_0_13" index="12" value="1.00000"/>
  <variable name="x_0_17" index="16" value="1.00000"/>
  <variable name="x_0_18" index="17" value="1.00000"/>
  <variable name="x_1_8" index="25" value="1.00000"/>
  <variable name="x_2_0" index="36" value="1.00000"/>
  <variable name="x_3_5" index="58" value="1.00000"/>
  <variable name="x_4_0" index="72" value="1.00000"/>
  <variable name="x_5_0" index="90" value="1.00000"/>
  <variable name="x_6_0" index="108" value="1.00000"/>
  <variable name="x_7_0" index="126" value="1.00000"/>
  <variable name="x_8_0" index="144" value="1.00000"/>
  <variable name="x_9_0" index="162" value="1.00000"/>
  <variable name="x_10_16" index="195" value="1.00000"/>
  <variable name="x_11_6" index="204" value="1.00000"/>
  <variable name="x_12_9" index="225" value="1.00000"/>
  <variable name="x_13_4" index="238" value="1.00000"/>
  <variable name="x_14_15" index="266" value="1.00000"/>
  <variable name="x_15_0" index="270" value="1.00000"/>
  <variable name="x_16_0" index="288" value="1.00000"/>
  <variable name="x_17_11" index="317" value="1.00000"/>
  <variable name="x_18_14" index="338" value="1.00000"/>
  <variable name="u_1" index="342" value="9.00000"/>
  <variable name="u_2" index="343" value="22.00000"/>
  <variable name="u_3" index="344" value="16.00000"/>
  <variable name="u_4" index="345" value="25.00000"/>
  <variable name="u_5" index="346" value="25.00000"/>
  <variable name="u_6" index="347" value="24.00000"/>
  <variable name="u_7" index="348" value="18.00000"/>
  <variable name="u_8" index="349" value="22.00000"/>
  <variable name="u_9" index="350" value="25.00000"/>
  <variable name="u_10" index="351" value="23.00000"/>
  <variable name="u_11" index="352" value="20.00000"/>
  <variable name="u_12" index="353" value="18.00000"/>
  <variable name="u_13" index="354" value="20.00000"/>
  <variable name="u_14" index="355" value="23.00000"/>
  <variable name="u_15" index="356" value="25.00000"/>
  <variable name="u_16" index="357" value="25.00000"/>
  <variable name="u_17" index="358" value="9.00000"/>
  <variable name="u_18" index="359" value="8.00000"/>
 </variables>
</CPLEXSolution>
